
Gurobi 7.5.1 (win64) logging started 12/02/18 18:26:16

Academic license - for non-commercial use only
Optimize a model with 3 rows, 4 columns and 10 nonzeros
Coefficient statistics:
  Matrix range     [1e+00, 9e+00]
  Objective range  [2e+00, 7e+00]
  Bounds range     [4e-01, 2e+01]
  RHS range        [8e+00, 2e+01]
Presolve removed 3 rows and 4 columns
Presolve time: 0.01s
Presolve: All rows and columns removed
Iteration    Objective       Primal Inf.    Dual Inf.      Time
       0    3.0342857e+01   0.000000e+00   0.000000e+00      0s

Solved in 0 iterations and 0.02 seconds
Optimal objective  3.034285714e+01

Gurobi 7.5.1 (win64) logging started 12/02/18 21:38:33

Academic license - for non-commercial use only
Optimize a model with 2 rows, 5 columns and 8 nonzeros
Coefficient statistics:
  Matrix range     [1e+00, 7e+00]
  Objective range  [1e+00, 7e+00]
  Bounds range     [0e+00, 0e+00]
  RHS range        [0e+00, 0e+00]
Presolve removed 1 rows and 2 columns
Presolve time: 0.00s
Presolved: 1 rows, 3 columns, 3 nonzeros

Iteration    Objective       Primal Inf.    Dual Inf.      Time
       0    0.0000000e+00   0.000000e+00   0.000000e+00      0s
       0    0.0000000e+00   0.000000e+00   0.000000e+00      0s

Solved in 0 iterations and 0.00 seconds
Optimal objective  0.000000000e+00

Gurobi 7.5.1 (win64) logging started 12/02/18 21:44:12

Academic license - for non-commercial use only
Optimize a model with 3 rows, 5 columns and 12 nonzeros
Coefficient statistics:
  Matrix range     [1e+00, 9e+00]
  Objective range  [1e+00, 7e+00]
  Bounds range     [0e+00, 0e+00]
  RHS range        [0e+00, 0e+00]
Presolve removed 2 rows and 2 columns
Presolve time: 0.00s
Presolved: 1 rows, 3 columns, 3 nonzeros

Iteration    Objective       Primal Inf.    Dual Inf.      Time
       0    0.0000000e+00   0.000000e+00   0.000000e+00      0s
       0    0.0000000e+00   0.000000e+00   0.000000e+00      0s

Solved in 0 iterations and 0.00 seconds
Optimal objective  0.000000000e+00

Gurobi 7.5.1 (win64) logging started 12/02/18 21:49:49

Academic license - for non-commercial use only
Optimize a model with 3 rows, 5 columns and 12 nonzeros
Coefficient statistics:
  Matrix range     [1e+00, 9e+00]
  Objective range  [1e+00, 7e+00]
  Bounds range     [0e+00, 0e+00]
  RHS range        [0e+00, 0e+00]
Presolve removed 2 rows and 2 columns
Presolve time: 0.00s
Presolved: 1 rows, 3 columns, 3 nonzeros

Iteration    Objective       Primal Inf.    Dual Inf.      Time
       0    0.0000000e+00   0.000000e+00   0.000000e+00      0s
       0    0.0000000e+00   0.000000e+00   0.000000e+00      0s

Solved in 0 iterations and 0.00 seconds
Optimal objective  0.000000000e+00

Gurobi 7.5.1 (win64) logging started 12/02/18 21:50:17

Academic license - for non-commercial use only
Warning for adding constraints: zero or small (< 1e-13) coefficients, ignored
Optimize a model with 3 rows, 5 columns and 13 nonzeros
Coefficient statistics:
  Matrix range     [1e+00, 9e+00]
  Objective range  [1e+00, 7e+00]
  Bounds range     [0e+00, 0e+00]
  RHS range        [0e+00, 0e+00]
Presolve removed 2 rows and 2 columns
Presolve time: 0.00s
Presolved: 1 rows, 3 columns, 3 nonzeros

Iteration    Objective       Primal Inf.    Dual Inf.      Time
       0    0.0000000e+00   0.000000e+00   0.000000e+00      0s
       0    0.0000000e+00   0.000000e+00   0.000000e+00      0s

Solved in 0 iterations and 0.00 seconds
Optimal objective  0.000000000e+00

Gurobi 7.5.1 (win64) logging started 12/02/18 21:51:11

Academic license - for non-commercial use only
Warning for adding constraints: zero or small (< 1e-13) coefficients, ignored
Optimize a model with 3 rows, 5 columns and 13 nonzeros
Coefficient statistics:
  Matrix range     [1e+00, 9e+00]
  Objective range  [1e+00, 7e+00]
  Bounds range     [0e+00, 0e+00]
  RHS range        [0e+00, 0e+00]
Presolve removed 2 rows and 2 columns
Presolve time: 0.00s
Presolved: 1 rows, 3 columns, 3 nonzeros

Iteration    Objective       Primal Inf.    Dual Inf.      Time
       0    0.0000000e+00   0.000000e+00   0.000000e+00      0s
       0    0.0000000e+00   0.000000e+00   0.000000e+00      0s

Solved in 0 iterations and 0.00 seconds
Optimal objective  0.000000000e+00

Gurobi 7.5.1 (win64) logging started 12/02/18 21:53:15

Academic license - for non-commercial use only
Warning for adding constraints: zero or small (< 1e-13) coefficients, ignored
Optimize a model with 3 rows, 5 columns and 13 nonzeros
Coefficient statistics:
  Matrix range     [1e+00, 9e+00]
  Objective range  [1e+00, 7e+00]
  Bounds range     [1e-01, 1e-01]
  RHS range        [0e+00, 0e+00]
Presolve removed 3 rows and 5 columns
Presolve time: 0.01s
Presolve: All rows and columns removed
Iteration    Objective       Primal Inf.    Dual Inf.      Time
       0    1.0000000e-01   0.000000e+00   0.000000e+00      0s

Solved in 0 iterations and 0.01 seconds
Optimal objective  1.000000000e-01

Gurobi 7.5.1 (win64) logging started 12/02/18 21:55:42

Academic license - for non-commercial use only
Warning for adding constraints: zero or small (< 1e-13) coefficients, ignored
Optimize a model with 3 rows, 5 columns and 13 nonzeros
Coefficient statistics:
  Matrix range     [1e+00, 9e+00]
  Objective range  [1e+00, 7e+00]
  Bounds range     [0e+00, 0e+00]
  RHS range        [0e+00, 0e+00]
Presolve removed 2 rows and 2 columns
Presolve time: 0.00s
Presolved: 1 rows, 3 columns, 3 nonzeros

Iteration    Objective       Primal Inf.    Dual Inf.      Time
       0    0.0000000e+00   0.000000e+00   0.000000e+00      0s
       0    0.0000000e+00   0.000000e+00   0.000000e+00      0s

Solved in 0 iterations and 0.01 seconds
Optimal objective  0.000000000e+00

Gurobi 7.5.1 (win64) logging started 12/02/18 22:49:41

Academic license - for non-commercial use only
Warning for adding constraints: zero or small (< 1e-13) coefficients, ignored
Optimize a model with 3 rows, 5 columns and 13 nonzeros
Coefficient statistics:
  Matrix range     [1e+00, 9e+00]
  Objective range  [1e+00, 7e+00]
  Bounds range     [0e+00, 0e+00]
  RHS range        [0e+00, 0e+00]
Presolve removed 2 rows and 2 columns
Presolve time: 0.00s
Presolved: 1 rows, 3 columns, 3 nonzeros

Iteration    Objective       Primal Inf.    Dual Inf.      Time
       0    0.0000000e+00   0.000000e+00   0.000000e+00      0s
       0    0.0000000e+00   0.000000e+00   0.000000e+00      0s

Solved in 0 iterations and 0.00 seconds
Optimal objective  0.000000000e+00
